\ENCODING=ISO-8859-1
\Problem name: ilog.cplex

Minimize
 obj1: 2 x_{1,2} + 4 x_{1,3} + 2 x_{2,3} + 2 x_{2,1} + 4 x_{3,1} + 2 x_{3,2}
Subject To
 c1:  y0 + y1 + y2 + y3  = 3
 c2:  x_{0,1} + x_{0,2} + x_{0,3} + x_{1,2} + x_{1,3} + x_{2,3} + x_{1,0}
      + x_{2,0} + x_{3,0} + x_{2,1} + x_{3,1} + x_{3,2}  = 2
 c3:  x_{0,1} + x_{0,2} + x_{0,3}  = 1
 c4:  x_{0,1} + x_{2,1} + x_{3,1} - y1  = 0
 c5:  x_{0,2} + x_{1,2} + x_{3,2} - y2  = 0
 c6:  x_{0,3} + x_{1,3} + x_{2,3} - y3  = 0
 c7:  - 2 x_{0,1} - 2 x_{1,0} + y0 + y1 >= 0
 c8:  - 2 x_{0,2} - 2 x_{2,0} + y0 + y2 >= 0
 c9:  - 2 x_{0,3} - 2 x_{3,0} + y0 + y3 >= 0
 c10: - 2 x_{1,2} - 2 x_{2,1} + y1 + y2 >= 0
 c11: - 2 x_{1,3} - 2 x_{3,1} + y1 + y3 >= 0
 c12: - 2 x_{2,3} - 2 x_{3,2} + y2 + y3 >= 0
 c13: f_{0,1} + f_{0,2} + f_{0,3}  = 2
 c14: - y1 + f_{0,1} - f_{1,0} + f_{2,1} - f_{1,2} + f_{3,1} - f_{1,3}  = 0
 c15: - y2 + f_{0,2} - f_{2,1} + f_{1,2} - f_{2,0} + f_{3,2} - f_{2,3}  = 0
 c16: - y3 + f_{0,3} - f_{3,1} + f_{1,3} - f_{3,2} + f_{2,3} - f_{3,0}  = 0
 c17: - 2 x_{0,1} + f_{0,1} <= 0
 c18: - 2 x_{1,0} + f_{1,0} <= 0
 c19: - 2 x_{0,2} + f_{0,2} <= 0
 c20: - 2 x_{2,0} + f_{2,0} <= 0
 c21: - 2 x_{0,3} + f_{0,3} <= 0
 c22: - 2 x_{3,0} + f_{3,0} <= 0
 c23: - 2 x_{1,2} + f_{1,2} <= 0
 c24: - 2 x_{2,1} + f_{2,1} <= 0
 c25: - 2 x_{1,3} + f_{1,3} <= 0
 c26: - 2 x_{3,1} + f_{3,1} <= 0
 c27: - 2 x_{2,3} + f_{2,3} <= 0
 c28: - 2 x_{3,2} + f_{3,2} <= 0
Bounds
 0 <= x_{0,1} <= 1
 0 <= x_{0,2} <= 1
 0 <= x_{0,3} <= 1
 0 <= x_{1,2} <= 1
 0 <= x_{1,3} <= 1
 0 <= x_{2,3} <= 1
 0 <= x_{1,0} <= 1
 0 <= x_{2,0} <= 1
 0 <= x_{3,0} <= 1
 0 <= x_{2,1} <= 1
 0 <= x_{3,1} <= 1
 0 <= x_{3,2} <= 1
 0 <= y0 <= 1
 0 <= y1 <= 1
 0 <= y2 <= 1
 0 <= y3 <= 1
 0 <= f_{0,1} <= 2
 0 <= f_{0,2} <= 2
 0 <= f_{0,3} <= 2
 0 <= f_{1,0} <= 2
 0 <= f_{2,1} <= 2
 0 <= f_{1,2} <= 2
 0 <= f_{3,1} <= 2
 0 <= f_{1,3} <= 2
 0 <= f_{2,0} <= 2
 0 <= f_{3,2} <= 2
 0 <= f_{2,3} <= 2
 0 <= f_{3,0} <= 2
Binaries
 x_{0,1}  x_{0,2}  x_{0,3}  x_{1,2}  x_{1,3}  x_{2,3}  x_{1,0}  x_{2,0} 
 x_{3,0}  x_{2,1}  x_{3,1}  x_{3,2}  y0  y1  y2  y3 
End
